14 11 36 17 40 43 14 26 10 48 16 45 41 15 31 21 37 19 48 29 30 50 13 15 9 10 46 12 49 19 49 8 11 21 11 36 13 8 50 42 45 10 28 16 9 17 18 33 23 18  38
50 72 16 69 46 9 8 59 49 28 36 1 38 28 2 35 74 71 44 61 58 55 63 59 48 41 39 9 25 9 32 50 48 19 22 3 19 51 68 9 77 4 72 46 41 20 12 15 52 77  89